p cnf 61 156
1 2 3 4 5 0
1 2 3 -4 9 0
1 2 -3 4 9 0
1 2 -3 -4 8 0
1 -2 3 4 9 0
1 -2 3 -4 6 0
1 -2 -3 4 7 0
1 -2 -3 -4 8 0
-1 2 3 4 6 0
-1 2 3 -4 5 0
-1 2 -3 4 10 0
-1 2 -3 -4 11 0
12 13 14 15 1 2 3 4 16 0
12 13 14 15 1 2 3 -4 17 0
12 13 14 15 1 2 -3 4 19 0
12 13 14 15 1 2 -3 -4 19 0
12 13 14 15 1 -2 3 4 19 0
12 13 14 15 1 -2 3 -4 19 0
12 13 14 15 1 -2 -3 4 19 0
12 13 14 15 1 -2 -3 -4 19 0
12 13 14 15 -1 2 3 4 19 0
12 13 14 15 -1 2 3 -4 19 0
12 13 14 15 -1 2 -3 4 19 0
12 13 14 15 -1 2 -3 -4 19 0
12 13 14 -15 1 2 3 4 42 0
12 13 14 -15 1 2 3 -4 18 0
12 13 14 -15 1 2 -3 4 20 0
12 13 14 -15 1 2 -3 -4 19 0
12 13 14 -15 1 -2 3 4 19 0
12 13 14 -15 1 -2 3 -4 19 0
12 13 14 -15 1 -2 -3 4 19 0
12 13 14 -15 1 -2 -3 -4 19 0
12 13 14 -15 -1 2 3 4 19 0
12 13 14 -15 -1 2 3 -4 19 0
12 13 14 -15 -1 2 -3 4 19 0
12 13 14 -15 -1 2 -3 -4 19 0
12 13 -14 15 1 2 3 4 28 0
12 13 -14 15 1 2 3 -4 21 0
12 13 -14 15 1 2 -3 4 22 0
12 13 -14 15 1 2 -3 -4 48 0
12 13 -14 15 1 -2 3 4 19 0
12 13 -14 15 1 -2 3 -4 19 0
12 13 -14 15 1 -2 -3 4 19 0
12 13 -14 15 1 -2 -3 -4 19 0
12 13 -14 15 -1 2 3 4 19 0
12 13 -14 15 -1 2 3 -4 19 0
12 13 -14 15 -1 2 -3 4 19 0
12 13 -14 15 -1 2 -3 -4 19 0
12 13 -14 -15 1 2 3 4 19 0
12 13 -14 -15 1 2 3 -4 19 0
12 13 -14 -15 1 2 -3 4 33 0
12 13 -14 -15 1 2 -3 -4 23 0
12 13 -14 -15 1 -2 3 4 17 0
12 13 -14 -15 1 -2 3 -4 51 0
12 13 -14 -15 1 -2 -3 4 19 0
12 13 -14 -15 1 -2 -3 -4 19 0
12 13 -14 -15 -1 2 3 4 19 0
12 13 -14 -15 -1 2 3 -4 19 0
12 13 -14 -15 -1 2 -3 4 19 0
12 13 -14 -15 -1 2 -3 -4 19 0
12 -13 14 15 1 2 3 4 19 0
12 -13 14 15 1 2 3 -4 19 0
12 -13 14 15 1 2 -3 4 19 0
12 -13 14 15 1 2 -3 -4 24 0
12 -13 14 15 1 -2 3 4 39 0
12 -13 14 15 1 -2 3 -4 49 0
12 -13 14 15 1 -2 -3 4 57 0
12 -13 14 15 1 -2 -3 -4 19 0
12 -13 14 15 -1 2 3 4 19 0
12 -13 14 15 -1 2 3 -4 19 0
12 -13 14 15 -1 2 -3 4 19 0
12 -13 14 15 -1 2 -3 -4 19 0
12 -13 14 -15 1 2 3 4 19 0
12 -13 14 -15 1 2 3 -4 19 0
12 -13 14 -15 1 2 -3 4 19 0
12 -13 14 -15 1 2 -3 -4 25 0
12 -13 14 -15 1 -2 3 4 59 0
12 -13 14 -15 1 -2 3 -4 56 0
12 -13 14 -15 1 -2 -3 4 50 0
12 -13 14 -15 1 -2 -3 -4 25 0
12 -13 14 -15 -1 2 3 4 19 0
12 -13 14 -15 -1 2 3 -4 19 0
12 -13 14 -15 -1 2 -3 4 19 0
12 -13 14 -15 -1 2 -3 -4 19 0
12 -13 -14 15 1 2 3 4 19 0
12 -13 -14 15 1 2 3 -4 19 0
12 -13 -14 15 1 2 -3 4 19 0
12 -13 -14 15 1 2 -3 -4 19 0
12 -13 -14 15 1 -2 3 4 45 0
12 -13 -14 15 1 -2 3 -4 44 0
12 -13 -14 15 1 -2 -3 4 26 0
12 -13 -14 15 1 -2 -3 -4 31 0
12 -13 -14 15 -1 2 3 4 51 0
12 -13 -14 15 -1 2 3 -4 19 0
12 -13 -14 15 -1 2 -3 4 19 0
12 -13 -14 15 -1 2 -3 -4 19 0
12 -13 -14 -15 1 2 3 4 19 0
12 -13 -14 -15 1 2 3 -4 19 0
12 -13 -14 -15 1 2 -3 4 19 0
12 -13 -14 -15 1 2 -3 -4 19 0
12 -13 -14 -15 1 -2 3 4 19 0
12 -13 -14 -15 1 -2 3 -4 32 0
12 -13 -14 -15 1 -2 -3 4 38 0
12 -13 -14 -15 1 -2 -3 -4 61 0
12 -13 -14 -15 -1 2 3 4 44 0
12 -13 -14 -15 -1 2 3 -4 30 0
12 -13 -14 -15 -1 2 -3 4 60 0
12 -13 -14 -15 -1 2 -3 -4 19 0
-12 13 14 15 1 2 3 4 19 0
-12 13 14 15 1 2 3 -4 19 0
-12 13 14 15 1 2 -3 4 19 0
-12 13 14 15 1 2 -3 -4 19 0
-12 13 14 15 1 -2 3 4 19 0
-12 13 14 15 1 -2 3 -4 19 0
-12 13 14 15 1 -2 -3 4 19 0
-12 13 14 15 1 -2 -3 -4 52 0
-12 13 14 15 -1 2 3 4 37 0
-12 13 14 15 -1 2 3 -4 34 0
-12 13 14 15 -1 2 -3 4 41 0
-12 13 14 15 -1 2 -3 -4 47 0
-12 13 14 -15 1 2 3 4 19 0
-12 13 14 -15 1 2 3 -4 19 0
-12 13 14 -15 1 2 -3 4 19 0
-12 13 14 -15 1 2 -3 -4 19 0
-12 13 14 -15 1 -2 3 4 19 0
-12 13 14 -15 1 -2 3 -4 19 0
-12 13 14 -15 1 -2 -3 4 19 0
-12 13 14 -15 1 -2 -3 -4 27 0
-12 13 14 -15 -1 2 3 4 53 0
-12 13 14 -15 -1 2 3 -4 35 0
-12 13 14 -15 -1 2 -3 4 36 0
-12 13 14 -15 -1 2 -3 -4 58 0
-12 13 -14 15 1 2 3 4 19 0
-12 13 -14 15 1 2 3 -4 19 0
-12 13 -14 15 1 2 -3 4 19 0
-12 13 -14 15 1 2 -3 -4 19 0
-12 13 -14 15 1 -2 3 4 19 0
-12 13 -14 15 1 -2 3 -4 19 0
-12 13 -14 15 1 -2 -3 4 19 0
-12 13 -14 15 1 -2 -3 -4 19 0
-12 13 -14 15 -1 2 3 4 51 0
-12 13 -14 15 -1 2 3 -4 43 0
-12 13 -14 15 -1 2 -3 4 40 0
-12 13 -14 15 -1 2 -3 -4 54 0
-12 13 -14 -15 1 2 3 4 19 0
-12 13 -14 -15 1 2 3 -4 19 0
-12 13 -14 -15 1 2 -3 4 19 0
-12 13 -14 -15 1 2 -3 -4 19 0
-12 13 -14 -15 1 -2 3 4 19 0
-12 13 -14 -15 1 -2 3 -4 19 0
-12 13 -14 -15 1 -2 -3 4 19 0
-12 13 -14 -15 1 -2 -3 -4 19 0
-12 13 -14 -15 -1 2 3 4 19 0
-12 13 -14 -15 -1 2 3 -4 29 0
-12 13 -14 -15 -1 2 -3 4 55 0
-12 13 -14 -15 -1 2 -3 -4 46 0
